 2  0  9  4  5  0  0  3  1 
 0  6  5  1  3  0  2  7  9 
 1  8  0  0  0  2  4  0  5 
 3  0  8  7  2  9  5  0  0 
 0  2  7  5  0  4  0  8  3 
 0  4  6  0  0  0  0  2  7 
 7  0  2  0  4  5  0  0  8 
 8  3  0  2  0  7  6  5  4 
 6  5  0  8  0  3  7  9  2 